Route #1: 1 17 30 9 34 23 37 55 21 35 14 1 
Route #2: 1 43 57 25 6 45 53 3 27 1 
Route #3: 1 26 7 36 40 44 39 31 59 5 4 46 16 41 1 
Route #4: 1 28 12 38 15 48 11 1 
Route #5: 1 1 29 52 32 62 1 
Route #6: 1 51 8 60 61 13 10 42 20 1 
Route #7: 1 19 54 58 2 49 1 
Route #8: 1 33 56 24 47 63 1 
Route #9: 1 22 18 50 1 

Cost 1720.53
Time 0.5606


 * Another infos *

 Iterations: 64 Time: 0.5606 sec - 0.0093 min - 0.0002 horas
0.0000 h 0.0093 min
Problem dimension: 64
